# Objective value = 0
tile_0_rot_0_pos_0 0
tile_0_rot_0_pos_1 0
tile_0_rot_0_pos_2 0
tile_0_rot_0_pos_3 0
tile_0_rot_0_pos_4 0
tile_0_rot_0_pos_5 0
tile_0_rot_0_pos_6 0
tile_0_rot_0_pos_7 0
tile_0_rot_0_pos_8 0
tile_0_rot_1_pos_0 0
tile_0_rot_1_pos_1 0
tile_0_rot_1_pos_2 0
tile_0_rot_1_pos_3 0
tile_0_rot_1_pos_4 0
tile_0_rot_1_pos_5 0
tile_0_rot_1_pos_6 0
tile_0_rot_1_pos_7 0
tile_0_rot_1_pos_8 0
tile_0_rot_2_pos_0 0
tile_0_rot_2_pos_1 0
tile_0_rot_2_pos_2 0
tile_0_rot_2_pos_3 0
tile_0_rot_2_pos_4 0
tile_0_rot_2_pos_5 0
tile_0_rot_2_pos_6 0
tile_0_rot_2_pos_7 0
tile_0_rot_2_pos_8 0
tile_0_rot_3_pos_0 0
tile_0_rot_3_pos_1 0
tile_0_rot_3_pos_2 0
tile_0_rot_3_pos_3 0
tile_0_rot_3_pos_4 0
tile_0_rot_3_pos_5 1
tile_0_rot_3_pos_6 0
tile_0_rot_3_pos_7 0
tile_0_rot_3_pos_8 0
tile_1_rot_0_pos_0 0
tile_1_rot_0_pos_1 0
tile_1_rot_0_pos_2 0
tile_1_rot_0_pos_3 0
tile_1_rot_0_pos_4 0
tile_1_rot_0_pos_5 0
tile_1_rot_0_pos_6 0
tile_1_rot_0_pos_7 0
tile_1_rot_0_pos_8 0
tile_1_rot_1_pos_0 0
tile_1_rot_1_pos_1 0
tile_1_rot_1_pos_2 0
tile_1_rot_1_pos_3 0
tile_1_rot_1_pos_4 0
tile_1_rot_1_pos_5 0
tile_1_rot_1_pos_6 0
tile_1_rot_1_pos_7 0
tile_1_rot_1_pos_8 0
tile_1_rot_2_pos_0 0
tile_1_rot_2_pos_1 0
tile_1_rot_2_pos_2 0
tile_1_rot_2_pos_3 0
tile_1_rot_2_pos_4 0
tile_1_rot_2_pos_5 0
tile_1_rot_2_pos_6 0
tile_1_rot_2_pos_7 0
tile_1_rot_2_pos_8 0
tile_1_rot_3_pos_0 0
tile_1_rot_3_pos_1 0
tile_1_rot_3_pos_2 0
tile_1_rot_3_pos_3 0
tile_1_rot_3_pos_4 0
tile_1_rot_3_pos_5 0
tile_1_rot_3_pos_6 0
tile_1_rot_3_pos_7 1
tile_1_rot_3_pos_8 0
tile_2_rot_0_pos_0 0
tile_2_rot_0_pos_1 0
tile_2_rot_0_pos_2 0
tile_2_rot_0_pos_3 0
tile_2_rot_0_pos_4 0
tile_2_rot_0_pos_5 0
tile_2_rot_0_pos_6 0
tile_2_rot_0_pos_7 0
tile_2_rot_0_pos_8 0
tile_2_rot_1_pos_0 0
tile_2_rot_1_pos_1 0
tile_2_rot_1_pos_2 0
tile_2_rot_1_pos_3 0
tile_2_rot_1_pos_4 0
tile_2_rot_1_pos_5 0
tile_2_rot_1_pos_6 0
tile_2_rot_1_pos_7 0
tile_2_rot_1_pos_8 0
tile_2_rot_2_pos_0 0
tile_2_rot_2_pos_1 0
tile_2_rot_2_pos_2 0
tile_2_rot_2_pos_3 0
tile_2_rot_2_pos_4 0
tile_2_rot_2_pos_5 0
tile_2_rot_2_pos_6 0
tile_2_rot_2_pos_7 0
tile_2_rot_2_pos_8 0
tile_2_rot_3_pos_0 0
tile_2_rot_3_pos_1 0
tile_2_rot_3_pos_2 1
tile_2_rot_3_pos_3 0
tile_2_rot_3_pos_4 0
tile_2_rot_3_pos_5 0
tile_2_rot_3_pos_6 0
tile_2_rot_3_pos_7 0
tile_2_rot_3_pos_8 0
tile_3_rot_0_pos_0 0
tile_3_rot_0_pos_1 0
tile_3_rot_0_pos_2 0
tile_3_rot_0_pos_3 0
tile_3_rot_0_pos_4 0
tile_3_rot_0_pos_5 0
tile_3_rot_0_pos_6 0
tile_3_rot_0_pos_7 0
tile_3_rot_0_pos_8 0
tile_3_rot_1_pos_0 1
tile_3_rot_1_pos_1 0
tile_3_rot_1_pos_2 0
tile_3_rot_1_pos_3 0
tile_3_rot_1_pos_4 0
tile_3_rot_1_pos_5 0
tile_3_rot_1_pos_6 0
tile_3_rot_1_pos_7 0
tile_3_rot_1_pos_8 0
tile_3_rot_2_pos_0 0
tile_3_rot_2_pos_1 0
tile_3_rot_2_pos_2 0
tile_3_rot_2_pos_3 0
tile_3_rot_2_pos_4 0
tile_3_rot_2_pos_5 0
tile_3_rot_2_pos_6 0
tile_3_rot_2_pos_7 0
tile_3_rot_2_pos_8 0
tile_3_rot_3_pos_0 0
tile_3_rot_3_pos_1 0
tile_3_rot_3_pos_2 0
tile_3_rot_3_pos_3 0
tile_3_rot_3_pos_4 0
tile_3_rot_3_pos_5 0
tile_3_rot_3_pos_6 0
tile_3_rot_3_pos_7 0
tile_3_rot_3_pos_8 0
tile_4_rot_0_pos_0 0
tile_4_rot_0_pos_1 0
tile_4_rot_0_pos_2 0
tile_4_rot_0_pos_3 0
tile_4_rot_0_pos_4 0
tile_4_rot_0_pos_5 0
tile_4_rot_0_pos_6 0
tile_4_rot_0_pos_7 0
tile_4_rot_0_pos_8 0
tile_4_rot_1_pos_0 0
tile_4_rot_1_pos_1 0
tile_4_rot_1_pos_2 0
tile_4_rot_1_pos_3 0
tile_4_rot_1_pos_4 0
tile_4_rot_1_pos_5 0
tile_4_rot_1_pos_6 0
tile_4_rot_1_pos_7 0
tile_4_rot_1_pos_8 0
tile_4_rot_2_pos_0 0
tile_4_rot_2_pos_1 0
tile_4_rot_2_pos_2 0
tile_4_rot_2_pos_3 0
tile_4_rot_2_pos_4 0
tile_4_rot_2_pos_5 0
tile_4_rot_2_pos_6 0
tile_4_rot_2_pos_7 0
tile_4_rot_2_pos_8 0
tile_4_rot_3_pos_0 0
tile_4_rot_3_pos_1 0
tile_4_rot_3_pos_2 0
tile_4_rot_3_pos_3 1
tile_4_rot_3_pos_4 0
tile_4_rot_3_pos_5 0
tile_4_rot_3_pos_6 0
tile_4_rot_3_pos_7 0
tile_4_rot_3_pos_8 0
tile_5_rot_0_pos_0 0
tile_5_rot_0_pos_1 0
tile_5_rot_0_pos_2 0
tile_5_rot_0_pos_3 0
tile_5_rot_0_pos_4 1
tile_5_rot_0_pos_5 0
tile_5_rot_0_pos_6 0
tile_5_rot_0_pos_7 0
tile_5_rot_0_pos_8 0
tile_5_rot_1_pos_0 0
tile_5_rot_1_pos_1 0
tile_5_rot_1_pos_2 0
tile_5_rot_1_pos_3 0
tile_5_rot_1_pos_4 0
tile_5_rot_1_pos_5 0
tile_5_rot_1_pos_6 0
tile_5_rot_1_pos_7 0
tile_5_rot_1_pos_8 0
tile_5_rot_2_pos_0 0
tile_5_rot_2_pos_1 0
tile_5_rot_2_pos_2 0
tile_5_rot_2_pos_3 0
tile_5_rot_2_pos_4 0
tile_5_rot_2_pos_5 0
tile_5_rot_2_pos_6 0
tile_5_rot_2_pos_7 0
tile_5_rot_2_pos_8 0
tile_5_rot_3_pos_0 0
tile_5_rot_3_pos_1 0
tile_5_rot_3_pos_2 0
tile_5_rot_3_pos_3 0
tile_5_rot_3_pos_4 0
tile_5_rot_3_pos_5 0
tile_5_rot_3_pos_6 0
tile_5_rot_3_pos_7 0
tile_5_rot_3_pos_8 0
tile_6_rot_0_pos_0 0
tile_6_rot_0_pos_1 0
tile_6_rot_0_pos_2 0
tile_6_rot_0_pos_3 0
tile_6_rot_0_pos_4 0
tile_6_rot_0_pos_5 0
tile_6_rot_0_pos_6 1
tile_6_rot_0_pos_7 0
tile_6_rot_0_pos_8 0
tile_6_rot_1_pos_0 0
tile_6_rot_1_pos_1 0
tile_6_rot_1_pos_2 0
tile_6_rot_1_pos_3 0
tile_6_rot_1_pos_4 0
tile_6_rot_1_pos_5 0
tile_6_rot_1_pos_6 0
tile_6_rot_1_pos_7 0
tile_6_rot_1_pos_8 0
tile_6_rot_2_pos_0 0
tile_6_rot_2_pos_1 0
tile_6_rot_2_pos_2 0
tile_6_rot_2_pos_3 0
tile_6_rot_2_pos_4 0
tile_6_rot_2_pos_5 0
tile_6_rot_2_pos_6 0
tile_6_rot_2_pos_7 0
tile_6_rot_2_pos_8 0
tile_6_rot_3_pos_0 0
tile_6_rot_3_pos_1 0
tile_6_rot_3_pos_2 0
tile_6_rot_3_pos_3 0
tile_6_rot_3_pos_4 0
tile_6_rot_3_pos_5 0
tile_6_rot_3_pos_6 0
tile_6_rot_3_pos_7 0
tile_6_rot_3_pos_8 0
tile_7_rot_0_pos_0 0
tile_7_rot_0_pos_1 0
tile_7_rot_0_pos_2 0
tile_7_rot_0_pos_3 0
tile_7_rot_0_pos_4 0
tile_7_rot_0_pos_5 0
tile_7_rot_0_pos_6 0
tile_7_rot_0_pos_7 0
tile_7_rot_0_pos_8 0
tile_7_rot_1_pos_0 0
tile_7_rot_1_pos_1 0
tile_7_rot_1_pos_2 0
tile_7_rot_1_pos_3 0
tile_7_rot_1_pos_4 0
tile_7_rot_1_pos_5 0
tile_7_rot_1_pos_6 0
tile_7_rot_1_pos_7 0
tile_7_rot_1_pos_8 0
tile_7_rot_2_pos_0 0
tile_7_rot_2_pos_1 1
tile_7_rot_2_pos_2 0
tile_7_rot_2_pos_3 0
tile_7_rot_2_pos_4 0
tile_7_rot_2_pos_5 0
tile_7_rot_2_pos_6 0
tile_7_rot_2_pos_7 0
tile_7_rot_2_pos_8 0
tile_7_rot_3_pos_0 0
tile_7_rot_3_pos_1 0
tile_7_rot_3_pos_2 0
tile_7_rot_3_pos_3 0
tile_7_rot_3_pos_4 0
tile_7_rot_3_pos_5 0
tile_7_rot_3_pos_6 0
tile_7_rot_3_pos_7 0
tile_7_rot_3_pos_8 0
tile_8_rot_0_pos_0 0
tile_8_rot_0_pos_1 0
tile_8_rot_0_pos_2 0
tile_8_rot_0_pos_3 0
tile_8_rot_0_pos_4 0
tile_8_rot_0_pos_5 0
tile_8_rot_0_pos_6 0
tile_8_rot_0_pos_7 0
tile_8_rot_0_pos_8 0
tile_8_rot_1_pos_0 0
tile_8_rot_1_pos_1 0
tile_8_rot_1_pos_2 0
tile_8_rot_1_pos_3 0
tile_8_rot_1_pos_4 0
tile_8_rot_1_pos_5 0
tile_8_rot_1_pos_6 0
tile_8_rot_1_pos_7 0
tile_8_rot_1_pos_8 0
tile_8_rot_2_pos_0 0
tile_8_rot_2_pos_1 0
tile_8_rot_2_pos_2 0
tile_8_rot_2_pos_3 0
tile_8_rot_2_pos_4 0
tile_8_rot_2_pos_5 0
tile_8_rot_2_pos_6 0
tile_8_rot_2_pos_7 0
tile_8_rot_2_pos_8 0
tile_8_rot_3_pos_0 0
tile_8_rot_3_pos_1 0
tile_8_rot_3_pos_2 0
tile_8_rot_3_pos_3 0
tile_8_rot_3_pos_4 0
tile_8_rot_3_pos_5 0
tile_8_rot_3_pos_6 0
tile_8_rot_3_pos_7 0
tile_8_rot_3_pos_8 1
